set HORAS:=
H01
H02
H03
H04
H05
H06
H07
H08
H09
H10
H11
H12
H13
H14
H15
H16
H17
H18
H19
H20
H21
H22
H23
H24
;        
set CONTRATOS:= NewPPA1 NewPPA2 NewPPA3;  
set PRY_RER:= PRER_1 PRER_2;    

#Demanda
param DemandaPortafolioActual:=	
H01	60
H02	60
H03	60
H04	60
H05	60
H06	60
H07	60
H08	60
H09	60
H10	90
H11	90
H12	90
H13	90
H14	60
H15	60
H16	60
H17	68
H18	68
H19	68
H20	68
H21	68
H22	68
H23	60
H24	60
;	

param DemandaPPA:	NewPPA1	NewPPA2	NewPPA3	:=
H01	40	10	20	
H02	40	10	20	
H03	40	10	20	
H04	40	10	20	
H05	40	10	20	
H06	40	10	40	
H07	40	10	40	
H08	40	25	40	
H09	40	25	40	
H10	40	25	40	
H11	40	25	40	
H12	40	25	40	
H13	40	25	40	
H14	40	25	40	
H15	40	25	40	
H16	40	25	40	
H17	40	25	40	
H18	40	25	10	
H19	40	10	10	
H20	40	10	10	
H21	40	10	10	
H22	40	10	20	
H23	40	10	20	
H24	40	10	20	
;	

#Produccion
param Produccion_Convencional:=	
H01	58.5
H02	58.5
H03	58.5
H04	58.5
H05	58.5
H06	58.5
H07	58.5
H08	58.5
H09	58.5
H10	58.5
H11	58.5
H12	58.5
H13	58.5
H14	58.5
H15	58.5
H16	58.5
H17	58.5
H18	58.5
H19	58.5
H20	58.5
H21	58.5
H22	58.5
H23	58.5
H24	58.5
;	
	

param Produccion_RER:	PRER_1	PRER_2	:=
H01	0	30	
H02	0	30	
H03	0	30	
H04	0	30	
H05	5	30	
H06	10	30	
H07	20	30	
H08	25	30	
H09	30	25	
H10	30	25	
H11	30	25	
H12	30	25	
H13	30	25	
H14	30	25	
H15	30	25	
H16	30	25	
H17	30	25	
H18	10	25	
H19	0	30	
H20	0	30	
H21	0	30	
H22	0	30	
H23	0	30	
H24	0	30	
;			

#Precios
param PrecioPPA:=	
NewPPA1	45
NewPPA2	40
NewPPA3	35
;	
param PrecioSpot:=	
H01	25
H02	25
H03	25
H04	25
H05	25
H06	25
H07	35
H08	35
H09	35
H10	35
H11	35
H12	35
H13	35
H14	35
H15	35
H16	35
H17	35
H18	35
H19	50
H20	50
H21	50
H22	26
H23	26
H24	26
;	

param HedgeRate=0.8;
